0 0 0 1 1 1 0 0 
0 42 32 74 46 42 52 54 
42 0 35 17 25 47 79 66 
32 35 0 19 22 61 21 36 
74 17 19 0 39 48 54 61 
46 25 22 39 0 43 42 72 
42 47 61 48 43 0 19 25 
52 79 21 54 42 19 0 50 
54 66 36 61 72 25 50 0 
2 50
1B 5P 2B 4P 3B 7B 6P 8B = 226